(declare-const ent0 Bool)
(declare-const ent1 Bool)
(declare-const ent2 Bool)
(declare-const ent3 Bool)
(declare-const ent4 Bool)
(declare-const ent5 Bool)
(declare-const ent6 Bool)
(declare-const ent7 Bool)
(declare-const ent8 Bool)
(declare-const ent9 Bool)
(declare-const ent10 Bool)
(declare-const ent11 Bool)
(declare-const ent12 Bool)
(declare-const ent13 Bool)
(declare-const reac0 Bool)
(declare-const dir0 Bool)
(declare-const coef0 Int)
(declare-const reac1 Bool)
(declare-const dir1 Bool)
(declare-const coef1 Int)
(declare-const reac2 Bool)
(declare-const dir2 Bool)
(declare-const coef2 Int)
(declare-const reac3 Bool)
(declare-const dir3 Bool)
(declare-const coef3 Int)
(declare-const reac4 Bool)
(declare-const dir4 Bool)
(declare-const coef4 Int)
(declare-const reac5 Bool)
(declare-const dir5 Bool)
(declare-const coef5 Int)
(declare-const reac6 Bool)
(declare-const dir6 Bool)
(declare-const coef6 Int)
(declare-const reac7 Bool)
(declare-const dir7 Bool)
(declare-const coef7 Int)
(declare-const reac8 Bool)
(declare-const dir8 Bool)
(declare-const coef8 Int)
(declare-const reac9 Bool)
(declare-const dir9 Bool)
(declare-const coef9 Int)
(assert (= dir0 (< coef0 0)))
(assert (= dir1 (< coef1 0)))
(assert (= dir2 (< coef2 0)))
(assert (= dir3 (< coef3 0)))
(assert (= dir4 (< coef4 0)))
(assert (= dir5 (< coef5 0)))
(assert (= dir6 (< coef6 0)))
(assert (= dir7 (< coef7 0)))
(assert (= dir8 (< coef8 0)))
(assert (= dir9 (< coef9 0)))
(assert (=> reac0 (and(or ent1 ent1) ent3)))
(assert (=> reac1 (and(or ent0 ent2) ent6)))
(assert (=> reac2 (and(or ent1 ent3) ent7)))
(assert (=> reac3 (and(or ent0 ent4) ent8)))
(assert (=> reac4 (and(or ent3 ent3) ent9)))
(assert (=> reac5 (and(or ent1 ent7) ent9)))
(assert (=> reac6 (and(or ent0 ent6) ent10)))
(assert (=> reac7 (and(or ent2 ent2) ent10)))
(assert (=> reac8 (and(or ent0 ent8) ent11)))
(assert (=> reac9 (and(or ent1 ent5) ent13)))
(assert (=> (and reac1 (not dir1)) (or (not ent0) (not ent2))))
(assert (=> (and reac2 (not dir2)) (or (not ent1) (not ent3))))
(assert (=> (and reac3 (not dir3)) (or (not ent0) (not ent4))))
(assert (=> (and reac5 (not dir5)) (or (not ent1) (not ent7))))
(assert (=> (and reac6 (not dir6)) (or (not ent0) (not ent6))))
(assert (=> (and reac8 (not dir8)) (or (not ent0) (not ent8))))
(assert (=> (and reac9 (not dir9)) (or (not ent1) (not ent5))))
(assert (=> ent0 (> (+ (ite reac1(- coef1) 0)
 (ite reac3(- coef3) 0)
 (ite reac6(- coef6) 0)
 (ite reac8(- coef8) 0)
 0) 0)))
(assert (=> ent1 (> (+ (ite reac0 (+ (- coef0) (- coef0)) 0)
 (ite reac2(- coef2) 0)
 (ite reac5(- coef5) 0)
 (ite reac9(- coef9) 0)
 0) 0)))
(assert (=> ent2 (> (+ (ite reac1(- coef1) 0)
 (ite reac7 (+ (- coef7) (- coef7)) 0)
 0) 0)))
(assert (=> ent3 (> (+ (ite reac0 coef0 0)
 (ite reac2(- coef2) 0)
 (ite reac4 (+ (- coef4) (- coef4)) 0)
 0) 0)))
(assert (=> ent4 (> (+ (ite reac3(- coef3) 0)
 0) 0)))
(assert (=> ent5 (> (+ (ite reac9(- coef9) 0)
 0) 0)))
(assert (=> ent6 (> (+ (ite reac1 coef1 0)
 (ite reac6(- coef6) 0)
 0) 0)))
(assert (=> ent7 (> (+ (ite reac2 coef2 0)
 (ite reac5(- coef5) 0)
 0) 0)))
(assert (=> ent8 (> (+ (ite reac3 coef3 0)
 (ite reac8(- coef8) 0)
 0) 0)))
(assert (=> ent9 (> (+ (ite reac4 coef4 0)
 (ite reac5 coef5 0)
 0) 0)))
(assert (=> ent10 (> (+ (ite reac6 coef6 0)
 (ite reac7 coef7 0)
 0) 0)))
(assert (=> ent11 (> (+ (ite reac8 coef8 0)
 0) 0)))
(assert (=> ent12 (> (+ 0) 0)))
(assert (=> ent13 (> (+ (ite reac9 coef9 0)
 0) 0)))
(assert (= (+ (ite ent0 1 0) (ite ent1 1 0) (ite ent2 1 0) (ite ent3 1 0) (ite ent4 1 0) (ite ent5 1 0) (ite ent6 1 0) (ite ent7 1 0) (ite ent8 1 0) (ite ent9 1 0) (ite ent10 1 0) (ite ent11 1 0) (ite ent12 1 0) (ite ent13 1 0)) 9))
(assert (= (+ (ite reac0 1 0) (ite reac1 1 0) (ite reac2 1 0) (ite reac3 1 0) (ite reac4 1 0) (ite reac5 1 0) (ite reac6 1 0) (ite reac7 1 0) (ite reac8 1 0) (ite reac9 1 0)) 9))
(assert (not (and reac0 reac4 reac5 ent1 ent3 ent9)))
(assert (not (and reac2 reac4 reac5 ent3 ent7 ent9)))
(assert (not (and reac1 reac6 reac7 ent2 ent6 ent10)))
(check-sat)
(get-model)
